 $BASIS GBASIS=CCT $END
 $CONTRL ISPHER=1 VBTYP=VB2000 $END
 $DATA 
C2H4
C1
C     6.0    -0.67365098     0.00000000     0.00000000
C     6.0     0.67365098     0.00000000     0.00000000
H     1.0    -1.24851787    -0.93385303     0.00000000
H     1.0    -1.24851787     0.93385303     0.00000000
H     1.0     1.24851787    -0.93385303     0.00000000
H     1.0     1.24851787     0.93385303     0.00000000
 $END
 $VB2000
#! GPF(7)/cc-pVTZ

 C2H4 GVB-PP

 $GPFEP

 $MEMORY
 40000000

 $END
